p cnf 23 10
e 1 0
a 2 3 4 0
e 5 0
a 6 7 0
e 8 9 10 0
a 11 12 0
e 13 14 0
a 15 0
e 16 0
a 17 0
e 18 0
a 19 0
e 20 0
a 21 22 0
e 23 0
-9 -19 6 0
-8 5 16 0
-20 -19 8 11 13 0
9 -18 -8 -16 10 0
21 9 18 -1 -12 0
14 -12 -10 20 13 0
-23 16 15 -19 -17 0
-1 15 10 7 -20 0
-13 -5 -8 -22 -14 0
11 -20 5 -23 0
